DIMENSION: 10
EDGE_WEIGHT_TYPE: EXPLICIT
EDGE_WEIGHT_FORMAT: FULL_MATRIX
EDGE_WEIGHT_SECTION:
32767 32767 32767 91 32767 90 86 32767 62 65 
32767 32767 89 32767 32767 32767 20 7 32767 58 
32767 89 32767 97 60 32767 26 32767 94 61 
91 32767 97 32767 87 32767 100 75 6 18 
32767 32767 60 87 32767 73 32767 32767 4 37 
90 32767 32767 32767 73 32767 55 5 32767 32767 
86 20 26 100 32767 55 32767 32767 32767 32767 
32767 7 32767 75 32767 5 32767 32767 69 32767 
62 32767 94 6 4 32767 32767 69 32767 32767 
65 58 61 18 37 32767 32767 32767 32767 32767 
EOF